
  22    4
  10   10   10   10

   0   0   0   0   0   4 2 4 5 8 
   1  10  10  10  10   5 15 10 7 6 3 
   3  10  10  10  10   5 19 18 12 11 9 
   6  10  10  10  10   4 19 15 9 6 
  10  10  10  10  10   3 19 12 6 
   2  10  10  10  10   4 18 17 14 13 
  10  10  10  10  10   4 18 17 14 13 
   8  10  10  10  10   3 18 17 14 
   9  10  10  10  10   2 17 14 
   9  10  10  10  10   2 17 14 
   9  10  10  10  10   2 17 13 
   7  10  10  10  10   1 14 
  10  10  10  10  10   2 21 20 
   8  10  10  10  10   1 16 
   1  10  10  10  10   1 16 
   6  10  10  10  10   1 20 
   6  10  10  10  10   1 21 
   6  10  10  10  10   1 20 
   9  10  10  10  10   1 21 
   8  10  10  10  10   1 22
  10  10  10  10  10   1 22
   0   0   0   0   0   0 
